%Nproc=8
%mem=2000MB
%chk=PD1_PD2_v5_PD2.chk
#P wb97xD CC-PVTZ pop=full nosymm
#P Iop(3/8=1)

comment

0 1
Mg       -13.50100      -42.69800       41.89800
C        -10.68800      -44.08500       40.68800
C        -15.28700      -44.47400       39.37900
C        -16.52400      -42.07300       43.61200
C        -11.71000      -41.63200       44.86400
N        -13.12700      -44.06900       40.25400
C        -11.83600      -44.37400       39.90700
C        -11.66800      -45.13400       38.63000
C        -13.12800      -45.02700       38.11100
C        -13.87400      -44.48600       39.27500
C        -13.21600      -43.97500       36.97500
C        -11.37100      -46.64100       38.93700
C        -11.24800      -47.41900       37.62300
C        -10.99800      -48.88800       38.05400
O        -11.76000      -49.87700       37.87000
O         -9.76600      -49.15600       38.77700
N        -15.48200      -43.16500       41.59900
C        -15.93600      -43.88900       40.53600
C        -17.43600      -44.01200       40.56700
C        -17.82800      -43.32800       41.80000
C        -16.51600      -42.86600       42.37400
C        -18.25500      -44.74000       39.55300
C        -19.19800      -43.09700       42.44600
C        -20.16000      -42.59400       41.69400
N        -14.01200      -42.09200       43.78600
C        -15.25700      -41.72600       44.21900
C        -15.28200      -40.83400       45.37200
C        -13.89900      -40.66400       45.73000
C        -13.16500      -41.51700       44.71200
C        -16.45100      -40.19900       46.02700
C        -13.36600      -39.81600       46.87000
C        -12.35200      -38.74900       46.29500
N        -11.61000      -42.81600       42.80500
C        -10.99000      -42.37900       43.86800
C         -9.56600      -42.59900       43.83900
C         -9.46300      -43.29500       42.58100
C        -10.78000      -43.40700       41.99300
C         -8.60100      -42.18600       44.87900
C         -8.50200      -43.93500       41.71100
O         -7.25000      -43.96200       41.96100
C         -9.22700      -44.35800       40.48600
C         -8.71600      -43.63700       39.28000
O         -8.97700      -42.47400       38.96700
O         -7.56000      -44.21600       38.67600
C         -6.95500      -43.56600       37.56000
C         -9.49500      -50.54400       39.20800
H        -15.89000      -44.90300       38.59200
H        -17.46200      -41.76300       44.04800
H        -11.21600      -41.16400       45.70300
H        -10.94000      -44.68300       37.95600
H        -13.51700      -45.99500       37.79600
H        -14.24400      -43.90900       36.61900
H        -12.90000      -43.00300       37.35400
H        -12.56600      -44.27300       36.15200
H        -12.18400      -47.05800       39.53100
H        -10.43800      -46.72100       39.49500
H        -10.38500      -47.05400       37.06600
H        -12.19000      -47.35800       37.07700
H        -19.31000      -44.67000       39.81900
H        -18.09800      -44.29400       38.57100
H        -17.95600      -45.78800       39.52800
H        -19.35300      -43.34400       43.48600
H        -21.13900      -42.41800       42.11600
H        -19.96800      -42.35900       40.65800
H        -16.11200      -39.59000       46.86500
H        -16.97300      -39.56800       45.30800
H        -17.12900      -40.97200       46.39000
H        -12.85200      -40.45500       47.58800
H        -14.19400      -39.30300       47.35900
H        -11.96600      -38.13700       47.11000
H        -11.52500      -39.26100       45.80300
H        -12.86400      -38.11200       45.57400
H         -7.59600      -42.48700       44.58300
H         -8.63500      -41.10300       44.99700
H         -8.85900      -42.66300       45.82500
H         -9.08400      -45.42900       40.34400
H         -6.09100      -44.14200       37.22800
H         -7.67700      -43.49300       36.74600
H         -6.63500      -42.56600       37.85100
H         -8.54100      -50.58200       39.73300
H        -10.29000      -50.88000       39.87400
H         -9.45500      -51.19500       38.33500

